(declare-fun bvlambda_33_ ()Bool         )
(declare-fun a136 () (Array (_ BitVec 1) (_ BitVec 12)))
(assert
(let (($e19 (_ bv6 13)))
(let (($e160 ((_ extract 12 1) $e19 )))
(let (($e161 (store a136 false      $e160 )))
(let (($e280 (store a136 bvlambda_33_ $e160)))
(let (($e281 (select $e280 false)))
(let (($e380 (select $e161 bvlambda_33_)))
(let (($e383 (   extract        $e380)))
(let (($e744 (   extract        $e281)))
(let (($e949 (select $e161 true      )))
(let (($e950 (   extract        $e949)))
(let (($e981 (bvand        $e383  bvlambda_33_)))
(let (($e989 (bvand $e744 $e981)))
              (bvand (not   $e989 ) $e950)
                                                                                                                                                                                                                                                                                                                                                                                                                                                                                                                                                                                                                                                                                                                                                                                                                                                                                                                                                                                                                                                                                                                                                                     )       )                              ))                                                                                                                                                                                                            )                                                                                                                                                                                                                                                                                                                                                                        )  )                                                                                                  ))                                                                                                                      ))                                                                                                   )                  )
